(set-logic QF_SLIA)
(declare-fun var0 () String)
(assert (str.in_re var0 (re.++ ((_ re.loop 5 887) (re.++ (re.union (str.to_re ".p") (re.union (str.to_re "+FL") (re.union (str.to_re "Yol") (str.to_re "Z(")))) (re.++ (re.union (str.to_re "QX5") (re.union (str.to_re "`") (re.union (str.to_re "[ZY") (str.to_re "h61")))) (re.++ (re.union (str.to_re "BZV") (re.union (str.to_re "<p~") (re.union (str.to_re "Q") (str.to_re "D~")))) (re.union (str.to_re "Uj_") (re.union (str.to_re "c}H") (re.union (str.to_re "`") (str.to_re "oS7")))))))) (re.++ ((_ re.loop 14 156) (re.++ (re.union (str.to_re "*") (re.union (str.to_re "|'") (re.union (str.to_re "5") (str.to_re "WR")))) (re.++ (re.union (str.to_re "OZM") (re.union (str.to_re "?") (re.union (str.to_re "nj") (str.to_re "?`")))) (re.++ (re.union (str.to_re "0\u0022,") (re.union (str.to_re "k") (re.union (str.to_re "z9") (str.to_re "9")))) (re.union (str.to_re "_h") (re.union (str.to_re "g@") (re.union (str.to_re "=g") (str.to_re "ANH")))))))) (re.++ ((_ re.loop 8 223) (re.++ (re.union (str.to_re "v;9") (re.union (str.to_re "rB$") (re.union (str.to_re "b") (str.to_re "NN")))) (re.++ (re.union (str.to_re "SO") (re.union (str.to_re "Zj") (re.union (str.to_re "WHG") (str.to_re "u+")))) (re.++ (re.union (str.to_re "?35") (re.union (str.to_re ",V2") (re.union (str.to_re "Edv") (str.to_re "Z7")))) (re.union (str.to_re "DyV") (re.union (str.to_re "w(") (re.union (str.to_re "ZdE") (str.to_re ".")))))))) ((_ re.loop 12 139) (re.++ (re.union (str.to_re "|x3") (re.union (str.to_re "bT`") (re.union (str.to_re "3") (str.to_re "&")))) (re.++ (re.union (str.to_re "]#Q") (re.union (str.to_re "aW") (re.union (str.to_re "w!") (str.to_re "m~")))) (re.++ (re.union (str.to_re "l") (re.union (str.to_re "7B#") (re.union (str.to_re "3?") (str.to_re "8y?")))) (re.union (str.to_re "x2K") (re.union (str.to_re "Ao`") (re.union (str.to_re "zbH") (str.to_re "{")))))))))))))
(assert (not (str.in_re var0 (re.++ ((_ re.loop 12 111) (re.++ (re.union (str.to_re "3") (re.union (str.to_re "2d{") (re.union (str.to_re "7nd") (str.to_re "DR")))) (re.++ (re.union (str.to_re "P") (re.union (str.to_re "m") (re.union (str.to_re "0") (str.to_re "0")))) (re.++ (re.union (str.to_re "(^S") (re.union (str.to_re "VzM") (re.union (str.to_re ",") (str.to_re "W=")))) (re.union (str.to_re "P") (re.union (str.to_re "A.") (re.union (str.to_re "j") (str.to_re "@")))))))) (re.++ ((_ re.loop 1 655) (re.++ (re.union (str.to_re "X") (re.union (str.to_re ">u") (re.union (str.to_re "Ry~") (str.to_re "e")))) (re.++ (re.union (str.to_re "I") (re.union (str.to_re ";") (re.union (str.to_re ".") (str.to_re "}S]")))) (re.++ (re.union (str.to_re "YX") (re.union (str.to_re "Z") (re.union (str.to_re "7T") (str.to_re "[S")))) (re.union (str.to_re "kT") (re.union (str.to_re "uJf") (re.union (str.to_re "@o") (str.to_re "*:")))))))) (re.++ ((_ re.loop 16 420) (re.++ (re.union (str.to_re "@") (re.union (str.to_re "%,T") (re.union (str.to_re "u") (str.to_re ">v")))) (re.++ (re.union (str.to_re "\\i") (re.union (str.to_re "\u0022Zk") (re.union (str.to_re "-") (str.to_re "^1{")))) (re.++ (re.union (str.to_re "|2~") (re.union (str.to_re "O") (re.union (str.to_re "Q") (str.to_re "W")))) (re.union (str.to_re "<kl") (re.union (str.to_re "<R") (re.union (str.to_re "8B") (str.to_re "R;O")))))))) ((_ re.loop 16 27) (re.++ (re.union (str.to_re "n@") (re.union (str.to_re ";") (re.union (str.to_re "ZU)") (str.to_re "P[(")))) (re.++ (re.union (str.to_re "Cc") (re.union (str.to_re "&") (re.union (str.to_re "=e2") (str.to_re "V")))) (re.++ (re.union (str.to_re "[") (re.union (str.to_re ":G!") (re.union (str.to_re "rCi") (str.to_re "i")))) (re.union (str.to_re "A") (re.union (str.to_re "A") (re.union (str.to_re "Z") (str.to_re ":2"))))))))))))))
(assert (not (str.in_re var0 (re.++ (re.* re.allchar) (re.++ (re.union (str.to_re "<") (re.union (str.to_re ">") (re.union (str.to_re "'") (re.union (str.to_re "\u0022") (str.to_re "&"))))) (re.* re.allchar))))))
(assert (<= 50 (str.len var0)))
(check-sat)
(get-model)
